(set-option :produce-models true)
(set-option :produce-unsat-cores true)
(set-option :produce-interpolants true)
(set-option :interpolant-check-mode true)
(set-option :proof-transformation LU)
(set-logic ALL)
(set-info :source |SMT script generated on 2024-03-30T23:52:46+01:00 by Ultimate (https://ultimate.informatik.uni-freiburg.de/)|)
(set-info :smt-lib-version 2.5)
(set-info :category "industrial")
(set-info :ultimate-id nr4.c_AllErrorsAtOnce_Iteration8)
(declare-fun |c_old(~CELLCOUNT~0)| () Int)
(declare-fun |c_old(~CELLCOUNT~0)_primed| () Int)
(declare-fun c_~CELLCOUNT~0 () Int)
(declare-fun c_~CELLCOUNT~0_primed () Int)
(declare-fun |c_old(#valid)| () (Array Int Int))
(declare-fun |c_old(#valid)_primed| () (Array Int Int))
(declare-fun |c_#valid| () (Array Int Int))
(declare-fun |c_#valid_primed| () (Array Int Int))
(declare-fun |c_old(#length)| () (Array Int Int))
(declare-fun |c_old(#length)_primed| () (Array Int Int))
(declare-fun |c_#length| () (Array Int Int))
(declare-fun |c_#length_primed| () (Array Int Int))
(declare-fun |c_old(#memory_int#0)| () (Array Int (Array Int Int)))
(declare-fun |c_old(#memory_int#0)_primed| () (Array Int (Array Int Int)))
(declare-fun |c_#memory_int#0| () (Array Int (Array Int Int)))
(declare-fun |c_#memory_int#0_primed| () (Array Int (Array Int Int)))
(declare-fun |c_old(#memory_int#1)| () (Array Int (Array Int Int)))
(declare-fun |c_old(#memory_int#1)_primed| () (Array Int (Array Int Int)))
(declare-fun |c_#memory_int#1| () (Array Int (Array Int Int)))
(declare-fun |c_#memory_int#1_primed| () (Array Int (Array Int Int)))
(declare-fun |c_old(#memory_int#2)| () (Array Int (Array Int Int)))
(declare-fun |c_old(#memory_int#2)_primed| () (Array Int (Array Int Int)))
(declare-fun |c_#memory_int#2| () (Array Int (Array Int Int)))
(declare-fun |c_#memory_int#2_primed| () (Array Int (Array Int Int)))
(declare-fun |c_old(#StackHeapBarrier)| () Int)
(declare-fun |c_old(#StackHeapBarrier)_primed| () Int)
(declare-fun |c_#StackHeapBarrier| () Int)
(declare-fun |c_#StackHeapBarrier_primed| () Int)
(declare-fun |c_#Ultimate.allocInit_~size| () Int)
(declare-fun |c_#Ultimate.allocInit_~size_primed| () Int)
(declare-fun |c_#Ultimate.allocInit_ptrBase| () Int)
(declare-fun |c_#Ultimate.allocInit_ptrBase_primed| () Int)
(declare-fun |c_read~int#2_#ptr.base| () Int)
(declare-fun |c_read~int#2_#ptr.base_primed| () Int)
(declare-fun |c_read~int#2_#ptr.offset| () Int)
(declare-fun |c_read~int#2_#ptr.offset_primed| () Int)
(declare-fun |c_read~int#2_#sizeOfReadType| () Int)
(declare-fun |c_read~int#2_#sizeOfReadType_primed| () Int)
(declare-fun |c_read~int#2_#value| () Int)
(declare-fun |c_read~int#2_#value_primed| () Int)
(declare-fun |c_read~int#1_#ptr.base| () Int)
(declare-fun |c_read~int#1_#ptr.base_primed| () Int)
(declare-fun |c_read~int#1_#ptr.offset| () Int)
(declare-fun |c_read~int#1_#ptr.offset_primed| () Int)
(declare-fun |c_read~int#1_#sizeOfReadType| () Int)
(declare-fun |c_read~int#1_#sizeOfReadType_primed| () Int)
(declare-fun |c_read~int#1_#value| () Int)
(declare-fun |c_read~int#1_#value_primed| () Int)
(declare-fun |c_read~int#0_#ptr.base| () Int)
(declare-fun |c_read~int#0_#ptr.base_primed| () Int)
(declare-fun |c_read~int#0_#ptr.offset| () Int)
(declare-fun |c_read~int#0_#ptr.offset_primed| () Int)
(declare-fun |c_read~int#0_#sizeOfReadType| () Int)
(declare-fun |c_read~int#0_#sizeOfReadType_primed| () Int)
(declare-fun |c_read~int#0_#value| () Int)
(declare-fun |c_read~int#0_#value_primed| () Int)
(declare-fun |c_assume_abort_if_not_#in~cond| () Int)
(declare-fun |c_assume_abort_if_not_#in~cond_primed| () Int)
(declare-fun c_assume_abort_if_not_~cond () Int)
(declare-fun c_assume_abort_if_not_~cond_primed () Int)
(declare-fun |c_main_#res| () Int)
(declare-fun |c_main_#res_primed| () Int)
(declare-fun |c_main_#t~nondet4| () Int)
(declare-fun |c_main_#t~nondet4_primed| () Int)
(declare-fun |c_main_#t~post5| () Int)
(declare-fun |c_main_#t~post5_primed| () Int)
(declare-fun |c_main_#t~post6| () Int)
(declare-fun |c_main_#t~post6_primed| () Int)
(declare-fun |c_main_#t~mem7| () Int)
(declare-fun |c_main_#t~mem7_primed| () Int)
(declare-fun |c_main_#t~mem8| () Int)
(declare-fun |c_main_#t~mem8_primed| () Int)
(declare-fun |c_main_#t~short9| () Bool)
(declare-fun |c_main_#t~short9_primed| () Bool)
(declare-fun |c_main_#t~post10| () Int)
(declare-fun |c_main_#t~post10_primed| () Int)
(declare-fun c_main_~MINVAL~0 () Int)
(declare-fun c_main_~MINVAL~0_primed () Int)
(declare-fun c_main_~i~0 () Int)
(declare-fun c_main_~i~0_primed () Int)
(declare-fun c_main_~j~0 () Int)
(declare-fun c_main_~j~0_primed () Int)
(declare-fun |c_main_~#volArray~0.base| () Int)
(declare-fun |c_main_~#volArray~0.base_primed| () Int)
(declare-fun |c_main_~#volArray~0.offset| () Int)
(declare-fun |c_main_~#volArray~0.offset_primed| () Int)
(declare-fun |c_#Ultimate.allocOnStack_~size| () Int)
(declare-fun |c_#Ultimate.allocOnStack_~size_primed| () Int)
(declare-fun |c_#Ultimate.allocOnStack_#res.base| () Int)
(declare-fun |c_#Ultimate.allocOnStack_#res.base_primed| () Int)
(declare-fun |c_#Ultimate.allocOnStack_#res.offset| () Int)
(declare-fun |c_#Ultimate.allocOnStack_#res.offset_primed| () Int)
(declare-fun |c_write~int#0_#value| () Int)
(declare-fun |c_write~int#0_#value_primed| () Int)
(declare-fun |c_write~int#0_#ptr.base| () Int)
(declare-fun |c_write~int#0_#ptr.base_primed| () Int)
(declare-fun |c_write~int#0_#ptr.offset| () Int)
(declare-fun |c_write~int#0_#ptr.offset_primed| () Int)
(declare-fun |c_write~int#0_#sizeOfWrittenType| () Int)
(declare-fun |c_write~int#0_#sizeOfWrittenType_primed| () Int)
(declare-fun |c_write~int#1_#value| () Int)
(declare-fun |c_write~int#1_#value_primed| () Int)
(declare-fun |c_write~int#1_#ptr.base| () Int)
(declare-fun |c_write~int#1_#ptr.base_primed| () Int)
(declare-fun |c_write~int#1_#ptr.offset| () Int)
(declare-fun |c_write~int#1_#ptr.offset_primed| () Int)
(declare-fun |c_write~int#1_#sizeOfWrittenType| () Int)
(declare-fun |c_write~int#1_#sizeOfWrittenType_primed| () Int)
(declare-fun |c_write~int#2_#value| () Int)
(declare-fun |c_write~int#2_#value_primed| () Int)
(declare-fun |c_write~int#2_#ptr.base| () Int)
(declare-fun |c_write~int#2_#ptr.base_primed| () Int)
(declare-fun |c_write~int#2_#ptr.offset| () Int)
(declare-fun |c_write~int#2_#ptr.offset_primed| () Int)
(declare-fun |c_write~int#2_#sizeOfWrittenType| () Int)
(declare-fun |c_write~int#2_#sizeOfWrittenType_primed| () Int)
(declare-fun |c___VERIFIER_nondet_int_#res| () Int)
(declare-fun |c___VERIFIER_nondet_int_#res_primed| () Int)
(declare-fun |c_ULTIMATE.start_#t~ret11| () Int)
(declare-fun |c_ULTIMATE.start_#t~ret11_primed| () Int)
(declare-fun |c___VERIFIER_assert_#in~cond| () Int)
(declare-fun |c___VERIFIER_assert_#in~cond_primed| () Int)
(declare-fun c___VERIFIER_assert_~cond () Int)
(declare-fun c___VERIFIER_assert_~cond_primed () Int)
(declare-fun |c_write~init~int#2_#value| () Int)
(declare-fun |c_write~init~int#2_#value_primed| () Int)
(declare-fun |c_write~init~int#2_#ptr.base| () Int)
(declare-fun |c_write~init~int#2_#ptr.base_primed| () Int)
(declare-fun |c_write~init~int#2_#ptr.offset| () Int)
(declare-fun |c_write~init~int#2_#ptr.offset_primed| () Int)
(declare-fun |c_write~init~int#2_#sizeOfWrittenType| () Int)
(declare-fun |c_write~init~int#2_#sizeOfWrittenType_primed| () Int)
(declare-fun |c_write~init~int#1_#value| () Int)
(declare-fun |c_write~init~int#1_#value_primed| () Int)
(declare-fun |c_write~init~int#1_#ptr.base| () Int)
(declare-fun |c_write~init~int#1_#ptr.base_primed| () Int)
(declare-fun |c_write~init~int#1_#ptr.offset| () Int)
(declare-fun |c_write~init~int#1_#ptr.offset_primed| () Int)
(declare-fun |c_write~init~int#1_#sizeOfWrittenType| () Int)
(declare-fun |c_write~init~int#1_#sizeOfWrittenType_primed| () Int)
(declare-fun |c___assert_fail_#in~0.base| () Int)
(declare-fun |c___assert_fail_#in~0.base_primed| () Int)
(declare-fun |c___assert_fail_#in~0.offset| () Int)
(declare-fun |c___assert_fail_#in~0.offset_primed| () Int)
(declare-fun |c___assert_fail_#in~1.base| () Int)
(declare-fun |c___assert_fail_#in~1.base_primed| () Int)
(declare-fun |c___assert_fail_#in~1.offset| () Int)
(declare-fun |c___assert_fail_#in~1.offset_primed| () Int)
(declare-fun |c___assert_fail_#in~2| () Int)
(declare-fun |c___assert_fail_#in~2_primed| () Int)
(declare-fun |c___assert_fail_#in~3.base| () Int)
(declare-fun |c___assert_fail_#in~3.base_primed| () Int)
(declare-fun |c___assert_fail_#in~3.offset| () Int)
(declare-fun |c___assert_fail_#in~3.offset_primed| () Int)
(declare-fun |c_write~init~int#0_#value| () Int)
(declare-fun |c_write~init~int#0_#value_primed| () Int)
(declare-fun |c_write~init~int#0_#ptr.base| () Int)
(declare-fun |c_write~init~int#0_#ptr.base_primed| () Int)
(declare-fun |c_write~init~int#0_#ptr.offset| () Int)
(declare-fun |c_write~init~int#0_#ptr.offset_primed| () Int)
(declare-fun |c_write~init~int#0_#sizeOfWrittenType| () Int)
(declare-fun |c_write~init~int#0_#sizeOfWrittenType_primed| () Int)
(declare-fun c_ULTIMATE.dealloc_~addr.base () Int)
(declare-fun c_ULTIMATE.dealloc_~addr.base_primed () Int)
(declare-fun c_ULTIMATE.dealloc_~addr.offset () Int)
(declare-fun c_ULTIMATE.dealloc_~addr.offset_primed () Int)
(declare-fun |c_aux_v_main_#t~mem7_3| () Int)
(declare-fun |c_aux_v_main_#t~mem8_3| () Int)
(declare-fun |c_aux_v_ULTIMATE.start_#t~ret11_3| () Int)
(declare-fun c_aux_v_ArrVal_1 () Int)
(declare-fun c_aux_v_ArrVal_2 () Int)
(declare-fun |c_aux_v_main_#t~mem7_6| () Int)
(declare-fun c_aux_v_ArrVal_4 () Int)
(declare-fun c_aux_v_ArrVal_3 () Int)
(declare-fun |c_aux_v_main_#t~mem7_7| () Int)
(declare-fun c_aux_v_ArrVal_5 () Int)
(declare-fun c_aux_v_ArrVal_6 () Int)
(declare-fun |c_aux_v_main_#t~mem7_8| () Int)
(declare-fun |c_aux_v_main_#t~mem8_6| () Int)
(declare-fun c_aux_v_ArrVal_8 () Int)
(declare-fun c_aux_v_ArrVal_7 () Int)
(declare-fun |c_aux_v_main_#t~mem7_9| () Int)
(declare-fun |c_aux_v_main_#t~mem8_7| () Int)
(declare-fun c_aux_v_ArrVal_9 () Int)
(declare-fun c_aux_v_ArrVal_10 () Int)
(declare-fun c_aux_v_ArrVal_11 () (Array Int Int))
(declare-fun c_aux_v_ArrVal_12 () Int)
(declare-fun |c_aux_v_main_#t~mem7_10| () Int)
(declare-fun |c_aux_v_main_#t~mem8_8| () Int)
(declare-fun c_aux_v_ArrVal_13 () Int)
(declare-fun c_aux_v_ArrVal_14 () Int)
(declare-fun c_aux_v_ArrVal_16 () Int)
(declare-fun c_aux_v_ArrVal_15 () (Array Int Int))
(declare-fun c_aux_v_ArrVal_18 () Int)
(declare-fun c_aux_v_ArrVal_17 () (Array Int Int))
(declare-fun |c_aux_v_main_#t~mem7_11| () Int)
(declare-fun |c_aux_v_main_#t~mem8_9| () Int)
(declare-fun c_aux_v_ArrVal_19 () Int)
(declare-fun c_aux_v_ArrVal_20 () Int)
(declare-fun c_aux_v_ArrVal_21 () (Array Int Int))
(declare-fun c_aux_v_ArrVal_22 () Int)
(declare-fun c_aux_v_ArrVal_24 () (Array Int Int))
(declare-fun c_aux_v_ArrVal_23 () Int)
(declare-fun |c_aux_v_main_#t~mem7_12| () Int)
(declare-fun |c_aux_v_main_#t~mem8_10| () Int)
(echo "starting trace check")
(push 1)
(declare-fun |#memory_int#0_-1| () (Array Int (Array Int Int)))
(declare-fun |#valid_-1| () (Array Int Int))
(declare-fun ~CELLCOUNT~0_-1 () Int)
(declare-fun |#length_-1| () (Array Int Int))
(declare-fun |#memory_int#2_-1| () (Array Int (Array Int Int)))
(declare-fun |#memory_int#1_-1| () (Array Int (Array Int Int)))
(declare-fun |old(#memory_int#0)_-1| () (Array Int (Array Int Int)))
(declare-fun |old(#valid)_-1| () (Array Int Int))
(declare-fun |old(~CELLCOUNT~0)_-1| () Int)
(declare-fun |old(#length)_-1| () (Array Int Int))
(declare-fun |old(#memory_int#2)_-1| () (Array Int (Array Int Int)))
(declare-fun |old(#memory_int#1)_-1| () (Array Int (Array Int Int)))
(declare-fun |old(~CELLCOUNT~0)_0| () Int)
(declare-fun ~CELLCOUNT~0_0 () Int)
(declare-fun |#StackHeapBarrier_-1| () Int)
(declare-fun ~CELLCOUNT~0_1 () Int)
(declare-fun |old(#valid)_3| () (Array Int Int))
(declare-fun |old(~CELLCOUNT~0)_3| () Int)
(declare-fun |old(#length)_3| () (Array Int Int))
(declare-fun |old(#memory_int#1)_3| () (Array Int (Array Int Int)))
(declare-fun |#valid_3| () (Array Int Int))
(declare-fun ~CELLCOUNT~0_3 () Int)
(declare-fun |#length_3| () (Array Int Int))
(declare-fun |#memory_int#1_3| () (Array Int (Array Int Int)))
(declare-fun |main_#t~nondet4_4| () Int)
(declare-fun ~CELLCOUNT~0_4 () Int)
(declare-fun main_~MINVAL~0_5 () Int)
(declare-fun |main_~#volArray~0.offset_5| () Int)
(declare-fun |#valid_5| () (Array Int Int))
(declare-fun main_~j~0_5 () Int)
(declare-fun main_~i~0_5 () Int)
(declare-fun |#length_5| () (Array Int Int))
(declare-fun |main_~#volArray~0.base_5| () Int)
(declare-fun v_ArrVal_25_fresh_1 () Int)
(declare-fun v_ArrVal_26_fresh_1 () Int)
(declare-fun |assume_abort_if_not_#in~cond_7| () Int)
(declare-fun assume_abort_if_not_~cond_8 () Int)
(declare-fun assume_abort_if_not_~cond_9 () Int)
(declare-fun main_~i~0_12 () Int)
(declare-fun main_~j~0_13 () Int)
(declare-fun |#memory_int#1_15| () (Array Int (Array Int Int)))
(declare-fun v_ArrVal_28_fresh_1 () Int)
(declare-fun v_ArrVal_27_fresh_1 () (Array Int Int))
(declare-fun main_~j~0_16 () Int)
(declare-fun |main_#t~post5_16| () Int)
(declare-fun |#memory_int#1_18| () (Array Int (Array Int Int)))
(declare-fun v_ArrVal_29_fresh_1 () (Array Int Int))
(declare-fun v_ArrVal_30_fresh_1 () Int)
(declare-fun main_~j~0_19 () Int)
(declare-fun |main_#t~post5_19| () Int)
(declare-fun |#memory_int#1_21| () (Array Int (Array Int Int)))
(declare-fun v_ArrVal_32_fresh_1 () (Array Int Int))
(declare-fun v_ArrVal_31_fresh_1 () Int)
(declare-fun main_~j~0_22 () Int)
(declare-fun |main_#t~post5_22| () Int)
(declare-fun main_~j~0_23 () Int)
(declare-fun main_~i~0_24 () Int)
(declare-fun |main_#t~post6_24| () Int)
(declare-fun main_~i~0_25 () Int)
(declare-fun main_~i~0_26 () Int)
(declare-fun |main_#t~short9_27| () Bool)
(declare-fun |v_main_#t~mem7_13_fresh_1| () Int)
(declare-fun |main_#t~short9_28| () Bool)
(declare-fun |v_main_#t~mem8_11_fresh_1| () Int)
(declare-fun |__VERIFIER_assert_#in~cond_29| () Int)
(declare-fun |main_#t~short9_29| () Bool)
(declare-fun __VERIFIER_assert_~cond_30 () Int)
(declare-fun __VERIFIER_assert_~cond_31 () Int)
(assert (! true :named ssa_precond))
(assert (! (not false) :named ssa_postcond))
(assert (! (= |old(~CELLCOUNT~0)_0| ~CELLCOUNT~0_0) :named ssa_0_GlobVarAssigCall))
(assert (! true :named ssa_0_LocVarAssigCall))
(assert (! (= |old(~CELLCOUNT~0)_0| ~CELLCOUNT~0_-1) :named ssa_0_OldVarAssigCall))
(assert (! (and (= (select |#valid_-1| 0) 0) (= 46 (select (select |#memory_int#2_-1| 2) 3)) (= 110 (select (select |#memory_int#2_-1| 2) 0)) (= (select |#valid_-1| 2) 1) (= (select |#length_-1| 2) 6) (= (select |#valid_-1| 3) 1) (< 0 |#StackHeapBarrier_-1|) (= (select |#valid_-1| 1) 1) (= (select |#length_-1| 1) 2) (= (select |#length_-1| 3) 12) (= (select (select |#memory_int#2_-1| 2) 1) 114) (= (select (select |#memory_int#0_-1| 1) 1) 0) (= 52 (select (select |#memory_int#2_-1| 2) 2)) (= (select (select |#memory_int#2_-1| 2) 5) 0) (= (select (select |#memory_int#0_-1| 1) 0) 48) (= (select (select |#memory_int#2_-1| 2) 4) 99) (= ~CELLCOUNT~0_1 0)) :named ssa_1))
(assert (! true :named ssa_2_return))
(assert (! (and (= |old(#valid)_3| |#valid_3|) (= |#length_3| |old(#length)_3|) (= |old(#memory_int#1)_3| |#memory_int#1_3|) (= |old(~CELLCOUNT~0)_3| ~CELLCOUNT~0_3)) :named ssa_3_GlobVarAssigCall))
(assert (! true :named ssa_3_LocVarAssigCall))
(assert (! (and (= |old(#length)_3| |#length_-1|) (= |#valid_-1| |old(#valid)_3|) (= |old(~CELLCOUNT~0)_3| ~CELLCOUNT~0_1) (= |old(#memory_int#1)_3| |#memory_int#1_-1|)) :named ssa_3_OldVarAssigCall))
(assert (! (and (<= 0 (+ ~CELLCOUNT~0_4 2147483648)) (<= ~CELLCOUNT~0_4 2147483647)) :named ssa_4))
(assert (! (and (< |#StackHeapBarrier_-1| |main_~#volArray~0.base_5|) (= |main_~#volArray~0.offset_5| 0) (= |#valid_5| (store |#valid_3| |main_~#volArray~0.base_5| v_ArrVal_26_fresh_1)) (= v_ArrVal_26_fresh_1 1) (not (= |main_~#volArray~0.base_5| 0)) (= |#length_5| (store |#length_3| |main_~#volArray~0.base_5| v_ArrVal_25_fresh_1)) (= 0 (select |#valid_3| |main_~#volArray~0.base_5|)) (= (* (mod ~CELLCOUNT~0_4 1073741824) 4) v_ArrVal_25_fresh_1) (= main_~MINVAL~0_5 2) (< 1 ~CELLCOUNT~0_4)) :named ssa_5))
(assert (! (= (ite (and (< ~CELLCOUNT~0_4 0) (not (= (mod ~CELLCOUNT~0_4 4) 0))) (+ (mod ~CELLCOUNT~0_4 4) (- 4)) (mod ~CELLCOUNT~0_4 4)) 0) :named ssa_6))
(assert (! true :named ssa_7_GlobVarAssigCall))
(assert (! (= (ite (= (ite (and (< ~CELLCOUNT~0_4 0) (not (= (mod ~CELLCOUNT~0_4 4) 0))) (+ (- 4) (mod ~CELLCOUNT~0_4 4)) (mod ~CELLCOUNT~0_4 4)) 0) 1 0) |assume_abort_if_not_#in~cond_7|) :named ssa_7_LocVarAssigCall))
(assert (! true :named ssa_7_OldVarAssigCall))
(assert (! (= |assume_abort_if_not_#in~cond_7| assume_abort_if_not_~cond_8) :named ssa_8))
(assert (! (not (= assume_abort_if_not_~cond_8 0)) :named ssa_9))
(assert (! true :named ssa_10))
(assert (! true :named ssa_11_return))
(assert (! (= main_~i~0_12 1) :named ssa_12))
(assert (! (and (= main_~j~0_13 4) (<= main_~i~0_12 (ite (and (not (= (mod ~CELLCOUNT~0_4 4) 0)) (< ~CELLCOUNT~0_4 0)) (+ (div ~CELLCOUNT~0_4 4) 1) (div ~CELLCOUNT~0_4 4)))) :named ssa_13))
(assert (! (<= 1 main_~j~0_13) :named ssa_14))
(assert (! (and (= (store |#memory_int#1_3| |main_~#volArray~0.base_5| v_ArrVal_27_fresh_1) |#memory_int#1_15|) (= (store (select |#memory_int#1_3| |main_~#volArray~0.base_5|) (+ |main_~#volArray~0.offset_5| (* main_~j~0_13 (- 4)) (* main_~i~0_12 16)) main_~j~0_13) v_ArrVal_27_fresh_1) (<= main_~MINVAL~0_5 main_~j~0_13) (= main_~j~0_13 v_ArrVal_28_fresh_1)) :named ssa_15))
(assert (! (= main_~j~0_13 (+ main_~j~0_16 1)) :named ssa_16))
(assert (! (<= 1 main_~j~0_16) :named ssa_17))
(assert (! (and (= main_~j~0_16 v_ArrVal_30_fresh_1) (= (store (select |#memory_int#1_15| |main_~#volArray~0.base_5|) (+ |main_~#volArray~0.offset_5| (* main_~j~0_16 (- 4)) (* main_~i~0_12 16)) main_~j~0_16) v_ArrVal_29_fresh_1) (<= main_~MINVAL~0_5 main_~j~0_16) (= (store |#memory_int#1_15| |main_~#volArray~0.base_5| v_ArrVal_29_fresh_1) |#memory_int#1_18|)) :named ssa_18))
(assert (! (= main_~j~0_16 (+ main_~j~0_19 1)) :named ssa_19))
(assert (! (<= 1 main_~j~0_19) :named ssa_20))
(assert (! (and (< main_~j~0_19 main_~MINVAL~0_5) (= (store |#memory_int#1_18| |main_~#volArray~0.base_5| v_ArrVal_32_fresh_1) |#memory_int#1_21|) (= v_ArrVal_31_fresh_1 0) (= (store (select |#memory_int#1_18| |main_~#volArray~0.base_5|) (+ (* main_~i~0_12 16) |main_~#volArray~0.offset_5| (* main_~j~0_19 (- 4))) v_ArrVal_31_fresh_1) v_ArrVal_32_fresh_1)) :named ssa_21))
(assert (! (= main_~j~0_19 (+ main_~j~0_22 1)) :named ssa_22))
(assert (! (< main_~j~0_22 1) :named ssa_23))
(assert (! (= main_~i~0_24 (+ main_~i~0_12 1)) :named ssa_24))
(assert (! (< (ite (and (not (= (mod ~CELLCOUNT~0_4 4) 0)) (< ~CELLCOUNT~0_4 0)) (+ (div ~CELLCOUNT~0_4 4) 1) (div ~CELLCOUNT~0_4 4)) main_~i~0_24) :named ssa_25))
(assert (! (= main_~i~0_26 0) :named ssa_26))
(assert (! (and (< main_~i~0_26 ~CELLCOUNT~0_4) (or (and (< |v_main_#t~mem7_13_fresh_1| main_~MINVAL~0_5) (not |main_#t~short9_27|)) (and |main_#t~short9_27| (<= main_~MINVAL~0_5 |v_main_#t~mem7_13_fresh_1|))) (= (select (select |#memory_int#1_21| |main_~#volArray~0.base_5|) (+ (* main_~i~0_26 4) |main_~#volArray~0.offset_5|)) |v_main_#t~mem7_13_fresh_1|)) :named ssa_27))
(assert (! (and (not |main_#t~short9_27|) (or (and (not (= |v_main_#t~mem8_11_fresh_1| 0)) (not |main_#t~short9_28|)) (and |main_#t~short9_28| (= |v_main_#t~mem8_11_fresh_1| 0))) (= |v_main_#t~mem8_11_fresh_1| (select (select |#memory_int#1_21| |main_~#volArray~0.base_5|) (+ |main_~#volArray~0.offset_5| (* main_~i~0_26 4))))) :named ssa_28))
(assert (! true :named ssa_29_GlobVarAssigCall))
(assert (! (= |__VERIFIER_assert_#in~cond_29| (ite |main_#t~short9_28| 1 0)) :named ssa_29_LocVarAssigCall))
(assert (! true :named ssa_29_OldVarAssigCall))
(assert (! (= __VERIFIER_assert_~cond_30 |__VERIFIER_assert_#in~cond_29|) :named ssa_30))
(assert (! (= __VERIFIER_assert_~cond_30 0) :named ssa_31))
(assert (! true :named ssa_32))
(check-sat)
(get-interpolants (and ssa_0_LocVarAssigCall ssa_precond ssa_0_GlobVarAssigCall ssa_0_OldVarAssigCall ssa_2_return ssa_1) (and ssa_3_OldVarAssigCall ssa_3_LocVarAssigCall ssa_3_GlobVarAssigCall) ssa_4 ssa_5 ssa_6 (and ssa_11_return ssa_7_LocVarAssigCall ssa_10 ssa_8 ssa_9 ssa_7_OldVarAssigCall ssa_7_GlobVarAssigCall) ssa_12 ssa_13 ssa_14 ssa_15 ssa_16 ssa_17 ssa_18 ssa_19 ssa_20 ssa_21 ssa_22 ssa_23 ssa_24 ssa_25 ssa_26 ssa_27 ssa_28 (and ssa_29_OldVarAssigCall ssa_29_GlobVarAssigCall ssa_29_LocVarAssigCall) ssa_30 ssa_31 (and ssa_32 ssa_postcond))
(echo "finished trace check")
(pop 1)
(echo "starting trace check")
(push 1)
(declare-fun |#memory_int#0_-2| () (Array Int (Array Int Int)))
(declare-fun |#valid_-2| () (Array Int Int))
(declare-fun ~CELLCOUNT~0_-2 () Int)
(declare-fun |#length_-2| () (Array Int Int))
(declare-fun |#memory_int#2_-2| () (Array Int (Array Int Int)))
(declare-fun |#memory_int#1_-2| () (Array Int (Array Int Int)))
(declare-fun |old(#memory_int#0)_-2| () (Array Int (Array Int Int)))
(declare-fun |old(#valid)_-2| () (Array Int Int))
(declare-fun |old(~CELLCOUNT~0)_-2| () Int)
(declare-fun |old(#length)_-2| () (Array Int Int))
(declare-fun |old(#memory_int#2)_-2| () (Array Int (Array Int Int)))
(declare-fun |old(#memory_int#1)_-2| () (Array Int (Array Int Int)))
(declare-fun |old(~CELLCOUNT~0)_-1| () Int)
(declare-fun ~CELLCOUNT~0_-1 () Int)
(declare-fun |#StackHeapBarrier_-1| () Int)
(declare-fun ~CELLCOUNT~0_0 () Int)
(assert (! (= |old(~CELLCOUNT~0)_-1| ~CELLCOUNT~0_-1) :named ssa_precond))
(assert (! (not true) :named ssa_postcond))
(assert (! (and (= (select |#valid_-2| 0) 0) (= 46 (select (select |#memory_int#2_-2| 2) 3)) (= 110 (select (select |#memory_int#2_-2| 2) 0)) (= (select |#valid_-2| 2) 1) (= (select |#length_-2| 2) 6) (= (select |#valid_-2| 3) 1) (< 0 |#StackHeapBarrier_-1|) (= (select |#valid_-2| 1) 1) (= (select |#length_-2| 1) 2) (= (select |#length_-2| 3) 12) (= (select (select |#memory_int#2_-2| 2) 1) 114) (= (select (select |#memory_int#0_-2| 1) 1) 0) (= 52 (select (select |#memory_int#2_-2| 2) 2)) (= (select (select |#memory_int#2_-2| 2) 5) 0) (= (select (select |#memory_int#0_-2| 1) 0) 48) (= (select (select |#memory_int#2_-2| 2) 4) 99) (= ~CELLCOUNT~0_0 0)) :named ssa_0))
(assert (! true :named ssa_1_return))
(assert (! true :named ssa_-2_PendingContext))
(assert (! true :named ssa_-2_LocVarAssignPendingContext))
(assert (! (= |old(~CELLCOUNT~0)_-1| ~CELLCOUNT~0_-2) :named ssa_-2_OldVarAssignPendingContext))
(check-sat)
(get-interpolants (and ssa_0 ssa_precond) (and ssa_-2_PendingContext ssa_-2_LocVarAssignPendingContext ssa_-2_OldVarAssignPendingContext ssa_1_return ssa_postcond))
(echo "finished trace check")
(pop 1)
(echo "starting trace check")
(push 1)
(declare-fun |#valid_-2| () (Array Int Int))
(declare-fun ~CELLCOUNT~0_-2 () Int)
(declare-fun |#length_-2| () (Array Int Int))
(declare-fun |#memory_int#1_-2| () (Array Int (Array Int Int)))
(declare-fun |old(#valid)_-2| () (Array Int Int))
(declare-fun |old(~CELLCOUNT~0)_-2| () Int)
(declare-fun |old(#length)_-2| () (Array Int Int))
(declare-fun |old(#memory_int#1)_-2| () (Array Int (Array Int Int)))
(declare-fun main_~MINVAL~0_-2 () Int)
(declare-fun |assume_abort_if_not_#in~cond_-1| () Int)
(declare-fun assume_abort_if_not_~cond_0 () Int)
(declare-fun assume_abort_if_not_~cond_1 () Int)
(assert (! true :named ssa_precond))
(assert (! (not (= 2 main_~MINVAL~0_-2)) :named ssa_postcond))
(assert (! (= |assume_abort_if_not_#in~cond_-1| assume_abort_if_not_~cond_0) :named ssa_0))
(assert (! (not (= assume_abort_if_not_~cond_0 0)) :named ssa_1))
(assert (! true :named ssa_2))
(assert (! true :named ssa_3_return))
(assert (! (= 2 main_~MINVAL~0_-2) :named ssa_-2_PendingContext))
(assert (! (= (ite (= (ite (and (< ~CELLCOUNT~0_-2 0) (not (= (mod ~CELLCOUNT~0_-2 4) 0))) (+ (- 4) (mod ~CELLCOUNT~0_-2 4)) (mod ~CELLCOUNT~0_-2 4)) 0) 1 0) |assume_abort_if_not_#in~cond_-1|) :named ssa_-2_LocVarAssignPendingContext))
(assert (! true :named ssa_-2_OldVarAssignPendingContext))
(check-sat)
(get-interpolants (and ssa_0 ssa_precond) ssa_1 ssa_2 (and ssa_-2_PendingContext ssa_3_return ssa_-2_LocVarAssignPendingContext ssa_-2_OldVarAssignPendingContext ssa_postcond))
(echo "finished trace check")
(pop 1)
(exit)
